data/CVRPLIB/Vrp-Set-XML100/instances/XML100_3213_17.vrp
NAME : XML100_3213_17
COMMENT : Generated by Queiroga, Sadykov, Uchoa, and Vidal (2021)
TYPE : CVRP
DIMENSION : 101
EDGE_WEIGHT_TYPE : EUC_2D
CAPACITY : 8
NODE_COORD_SECTION
1    0    0   
2    2    615 
3    911  854 
4    9    827 
5    735  814 
6    159  463 
7    698  584 
8    0    420 
9    151  699 
10   56   352 
11   165  642 
12   57   510 
13   758  822 
14   102  895 
15   90   638 
16   244  678 
17   790  833 
18   27   579 
19   93   583 
20   12   281 
21   768  714 
22   51   331 
23   53   687 
24   55   497 
25   55   373 
26   304  303 
27   38   337 
28   800  738 
29   180  730 
30   62   378 
31   45   632 
32   732  726 
33   74   244 
34   183  539 
35   172  348 
36   782  816 
37   78   651 
38   223  712 
39   13   870 
40   48   401 
41   266  702 
42   98   498 
43   800  686 
44   74   845 
45   779  777 
46   343  610 
47   60   750 
48   744  828 
49   50   377 
50   116  610 
51   8    939 
52   76   896 
53   45   443 
54   165  825 
55   166  593 
56   845  735 
57   44   838 
58   85   582 
59   170  541 
60   80   626 
61   237  695 
62   215  639 
63   210  581 
64   762  772 
65   868  805 
66   167  646 
67   31   930 
68   173  607 
69   125  445 
70   104  410 
71   182  595 
72   39   298 
73   116  581 
74   71   363 
75   172  951 
76   316  761 
77   813  685 
78   163  541 
79   62   383 
80   834  716 
81   48   902 
82   101  644 
83   20   984 
84   142  819 
85   174  626 
86   6    800 
87   101  672 
88   371  832 
89   670  792 
90   387  622 
91   43   875 
92   152  551 
93   75   357 
94   155  702 
95   143  297 
96   46   451 
97   54   280 
98   806  779 
99   45   399 
100  165  494 
101  105  894 
DEMAND_SECTION
1    0   
2    1   
3    1   
4    1   
5    1   
6    1   
7    1   
8    1   
9    1   
10   1   
11   1   
12   1   
13   1   
14   1   
15   1   
16   1   
17   1   
18   1   
19   1   
20   1   
21   1   
22   1   
23   1   
24   1   
25   1   
26   1   
27   1   
28   1   
29   1   
30   1   
31   1   
32   1   
33   1   
34   1   
35   1   
36   1   
37   1   
38   1   
39   1   
40   1   
41   1   
42   1   
43   1   
44   1   
45   1   
46   1   
47   1   
48   1   
49   1   
50   1   
51   1   
52   1   
53   1   
54   1   
55   1   
56   1   
57   1   
58   1   
59   1   
60   1   
61   1   
62   1   
63   1   
64   1   
65   1   
66   1   
67   1   
68   1   
69   1   
70   1   
71   1   
72   1   
73   1   
74   1   
75   1   
76   1   
77   1   
78   1   
79   1   
80   1   
81   1   
82   1   
83   1   
84   1   
85   1   
86   1   
87   1   
88   1   
89   1   
90   1   
91   1   
92   1   
93   1   
94   1   
95   1   
96   1   
97   1   
98   1   
99   1   
100  1   
101  1   
DEPOT_SECTION
1
-1
EOF
