data/CVRPLIB/Vrp-Set-XML100/solutions/XML100_3213_17.sol
Route #1: 92 73 29 78 48 24 9 21
Route #2: 90 80 66 82 50 38 3 85
Route #3: 94 34 5 99 33 58 77 68
Route #4: 62 70 67 84 65 10 54 91
Route #5: 59 36 86 46 22 30 1 17
Route #6: 61 15 40 60 37 28 93 8
Route #7: 75 87 47 12 4 88 89 45
Route #8: 32 96 71 19
Route #9: 26 98 39 52 95 23 11 7
Route #10: 25 20 27 55 79 76 42 6
Route #11: 56 43 51 13 100 74 53 83
Route #12: 63 35 16 2 64 97 44 31
Route #13: 69 41 72 49 81 14 18 57
Cost 20772
